# Generated by ConicBenchmarkUtilities.jl
VER
2

OBJSENSE
MIN

VAR
133 1
F 133

INT
15
7
8
9
10
11
12
13
14
15
16
17
18
19
20
21

CON
366 344
L= 1
L= 1
L= 1
L= 1
L= 1
L= 1
L= 1
L= 1
L= 1
L= 1
L= 1
EXP 3
L+ 1
L+ 1
L= 1
L= 1
L= 1
L= 1
L+ 1
L+ 1
L+ 1
L+ 1
EXP 3
L+ 1
L+ 1
L= 1
L= 1
L= 1
L= 1
L+ 1
L+ 1
L+ 1
L+ 1
L= 1
L= 1
L= 1
L= 1
L= 1
L+ 1
L+ 1
L+ 1
L+ 1
EXP 3
L+ 1
L+ 1
L= 1
L= 1
L= 1
L= 1
L+ 1
L+ 1
L+ 1
L+ 1
L= 1
L= 1
L= 1
L= 1
L= 1
L= 1
L= 1
L= 1
L+ 1
L+ 1
L+ 1
L+ 1
L+ 1
L+ 1
EXP 3
L+ 1
L+ 1
L= 1
L= 1
L= 1
L= 1
L+ 1
L+ 1
L+ 1
L+ 1
EXP 3
L+ 1
L+ 1
L= 1
L= 1
L= 1
L= 1
L+ 1
L+ 1
L+ 1
L+ 1
EXP 3
L+ 1
L+ 1
L= 1
L= 1
L= 1
L= 1
L+ 1
L+ 1
L+ 1
L+ 1
L= 1
L= 1
L= 1
L= 1
L= 1
L+ 1
L+ 1
L+ 1
L+ 1
L= 1
L= 1
L= 1
L= 1
L= 1
L+ 1
L+ 1
L+ 1
L+ 1
EXP 3
L+ 1
L+ 1
L= 1
L= 1
L= 1
L= 1
L+ 1
L+ 1
L+ 1
L+ 1
L= 1
L= 1
L= 1
L= 1
L= 1
L= 1
L= 1
L= 1
L+ 1
L+ 1
L+ 1
L+ 1
L+ 1
L+ 1
EXP 3
L+ 1
L+ 1
L= 1
L= 1
L= 1
L= 1
L+ 1
L+ 1
L+ 1
L+ 1
EXP 3
L+ 1
L+ 1
L= 1
L= 1
L= 1
L= 1
L+ 1
L+ 1
L+ 1
L+ 1
EXP 3
L+ 1
L+ 1
EXP 3
L+ 1
L+ 1
L= 1
L= 1
L= 1
L= 1
L= 1
L= 1
L+ 1
L+ 1
L+ 1
L+ 1
L+ 1
L+ 1
L= 1
L+ 1
L+ 1
L+ 1
L+ 1
L+ 1
L+ 1
L+ 1
L+ 1
L+ 1
L+ 1
L+ 1
L+ 1
L+ 1
L+ 1
L+ 1
L+ 1
L+ 1
L+ 1
L+ 1
L+ 1
L+ 1
L+ 1
L+ 1
L+ 1
L+ 1
L+ 1
L+ 1
L+ 1
L+ 1
L+ 1
L+ 1
L+ 1
L+ 1
L+ 1
L+ 1
L+ 1
L+ 1
L+ 1
L+ 1
L+ 1
L+ 1
L+ 1
L+ 1
L+ 1
L+ 1
L+ 1
L+ 1
L+ 1
L+ 1
L+ 1
L+ 1
L+ 1
L+ 1
L+ 1
L+ 1
L+ 1
L+ 1
L+ 1
L+ 1
L+ 1
L+ 1
L+ 1
L+ 1
L+ 1
L+ 1
L+ 1
L+ 1
L+ 1
L+ 1
L+ 1
L+ 1
L+ 1
L+ 1
L+ 1
L+ 1
L+ 1
L+ 1
L+ 1
L+ 1
L+ 1
L+ 1
L+ 1
L+ 1
L+ 1
L+ 1
L+ 1
L+ 1
L+ 1
L+ 1
L+ 1
L+ 1
L+ 1
L+ 1
L+ 1
L+ 1
L+ 1
L+ 1
L+ 1
L+ 1
L+ 1
L+ 1
L+ 1
L+ 1
L+ 1
L+ 1
L+ 1
L+ 1
L+ 1
L+ 1
L+ 1
L+ 1
L+ 1
L+ 1
L+ 1
L+ 1
L+ 1
L+ 1
L+ 1
L+ 1
L+ 1
L+ 1
L+ 1
L+ 1
L+ 1
L+ 1
L+ 1
L+ 1
L+ 1
L+ 1
L+ 1
L+ 1
L+ 1
L+ 1
L+ 1
L+ 1
L+ 1
L+ 1
L+ 1
L+ 1
L+ 1
L+ 1
L+ 1
L+ 1
L+ 1
L+ 1
L+ 1
L+ 1
L+ 1
L+ 1
L+ 1
L+ 1
L+ 1
L+ 1
L+ 1
L+ 1
L+ 1
L+ 1
L+ 1
L+ 1
L+ 1

OBJACOORD
1
22 -1.0

ACOORD
611
0 0 5.0
3 0 -1.0
233 0 1.0
0 1 500.0
9 1 1.0
125 1 1.0
252 1 1.0
0 2 350.0
10 2 1.0
138 2 1.0
253 2 1.0
0 3 200.0
150 3 1.0
266 3 1.0
0 4 250.0
165 4 1.0
267 4 1.0
0 5 200.0
178 5 1.0
268 5 1.0
0 6 200.0
198 6 1.0
269 6 1.0
0 7 -5.0
11 7 1.0
12 7 1.0
14 7 1.0
20 7 10.0
21 7 -10.0
22 7 2.39789527279837
23 7 -2.39789527279837
205 7 1.0
213 7 1.0
214 7 1.0
215 7 1.0
336 7 1.0
337 7 -1.0
0 8 -8.0
24 8 1.0
25 8 1.0
27 8 1.0
33 8 10.0
34 8 -10.0
35 8 2.87747432735804
36 8 -2.87747432735804
205 8 1.0
213 8 1.0
214 8 1.0
215 8 1.0
338 8 1.0
339 8 -1.0
0 9 -6.0
42 9 2.87747432735804
43 9 -2.87747432735804
44 9 2.15810574551853
45 9 -2.15810574551853
206 9 -1.0
213 9 -1.0
216 9 1.0
217 9 1.0
340 9 1.0
341 9 -1.0
0 10 -10.0
46 10 1.0
47 10 1.0
49 10 1.0
55 10 2.87747432735804
56 10 -2.87747432735804
57 10 2.03277599268042
58 10 -2.03277599268042
209 10 -1.0
214 10 -1.0
218 10 1.0
342 10 1.0
343 10 -1.0
0 11 -6.0
67 11 2.87747432735804
68 11 -2.87747432735804
69 11 7.0
70 11 -7.0
71 11 3.5
72 11 -3.5
211 11 -1.0
215 11 -1.0
219 11 1.0
220 11 1.0
221 11 1.0
344 11 1.0
345 11 -1.0
0 12 -7.0
73 12 1.0
74 12 1.0
76 12 1.0
82 12 2.15810574551853
83 12 -2.15810574551853
84 12 1.43746550029693
85 12 -1.43746550029693
206 12 1.0
207 12 -1.0
216 12 -1.0
222 12 1.0
346 12 1.0
347 12 -1.0
0 13 -4.0
86 13 1.0
87 13 1.0
89 13 1.0
95 13 2.15810574551853
96 13 -2.15810574551853
97 13 1.03497516021379
98 13 -1.03497516021379
206 13 1.0
208 13 -1.0
217 13 -1.0
223 13 1.0
348 13 1.0
349 13 -1.0
0 14 -5.0
99 14 1.0
100 14 1.0
102 14 1.0
108 14 2.03277599268042
109 14 -2.03277599268042
110 14 1.10947836929589
111 14 -1.10947836929589
209 14 1.0
210 14 -1.0
218 14 -1.0
224 14 1.0
225 14 1.0
350 14 1.0
351 14 -1.0
0 15 -2.0
117 15 3.5
118 15 -3.5
119 15 3.15
120 15 -3.15
211 15 1.0
212 15 -1.0
219 15 -1.0
352 15 1.0
353 15 -1.0
0 16 -4.0
126 16 3.5
127 16 -3.5
128 16 2.1
129 16 -2.1
211 16 1.0
220 16 -1.0
354 16 1.0
355 16 -1.0
0 17 -3.0
130 17 1.0
131 17 1.0
133 17 1.0
139 17 3.5
140 17 -3.5
141 17 1.6544851364539
142 17 -1.6544851364539
211 17 1.0
221 17 -1.0
356 17 1.0
357 17 -1.0
0 18 -7.0
151 18 1.43746550029693
152 18 -1.43746550029693
153 18 5.0
154 18 -5.0
155 18 5.0
156 18 -5.0
207 18 1.0
222 18 -1.0
358 18 1.0
359 18 -1.0
0 19 -3.0
157 19 1.0
158 19 1.0
160 19 1.0
166 19 1.03497516021379
167 19 -1.03497516021379
168 19 0.710483612536911
169 19 -0.710483612536911
208 19 1.0
223 19 -1.0
360 19 1.0
361 19 -1.0
0 20 -2.0
170 20 1.0
171 20 1.0
173 20 1.0
179 20 1.10947836929589
180 20 -1.10947836929589
181 20 0.522508489006913
182 20 -0.522508489006913
210 20 1.0
224 20 -1.0
362 20 1.0
363 20 -1.0
0 21 -4.0
183 21 1.0
184 21 1.0
186 21 1.0
188 21 1.0
189 21 1.0
191 21 1.0
199 21 1.10947836929589
200 21 -1.10947836929589
201 21 8.15
202 21 -8.15
203 21 1.43894002153683
204 21 -1.43894002153683
210 21 1.0
212 21 1.0
225 21 -1.0
364 21 1.0
365 21 -1.0
0 22 -1.0
1 23 1.0
226 23 1.0
227 23 -1.0
1 24 -1.0
18 24 1.0
228 24 1.0
1 25 -1.0
31 25 1.0
229 25 1.0
2 26 -1.0
19 26 1.0
230 26 1.0
2 27 -1.0
32 27 1.0
231 27 1.0
2 28 1.0
3 28 1.0
232 28 1.0
3 29 -1.0
4 29 1.0
234 29 1.0
4 30 -1.0
40 30 1.0
235 30 1.0
4 31 -1.0
53 31 1.0
236 31 1.0
4 32 -1.0
64 32 1.0
237 32 1.0
5 33 1.0
41 33 1.0
240 33 1.0
5 34 -1.0
80 34 1.0
243 34 1.0
5 35 -1.0
93 35 1.0
244 35 1.0
6 36 1.0
66 36 1.0
242 36 1.0
6 37 -1.0
115 37 1.0
245 37 1.0
6 38 -1.0
124 38 1.0
246 38 1.0
6 39 -1.0
137 39 1.0
247 39 1.0
7 40 1.0
107 40 1.0
250 40 1.0
7 41 -1.0
177 41 1.0
254 41 1.0
7 42 -1.0
196 42 1.0
255 42 1.0
8 43 -1.0
116 43 1.0
251 43 1.0
8 44 -1.0
258 44 1.0
259 44 -1.0
8 45 1.0
197 45 1.0
260 45 1.0
9 46 -1.0
261 46 1.0
9 47 -1.0
262 47 1.0
10 48 -1.0
263 48 1.0
10 49 -1.0
264 49 1.0
10 50 -1.0
265 50 1.0
13 51 -1.0
15 51 -1.0
11 52 1.0
14 52 1.0
18 52 -1.0
20 52 -1.0
270 52 1.0
15 53 -1.0
19 53 -1.0
22 53 -1.0
274 53 1.0
16 54 1.0
18 54 -1.0
21 54 -1.0
271 54 1.0
17 55 1.0
19 55 -1.0
23 55 -1.0
275 55 1.0
26 56 -1.0
28 56 -1.2
24 57 1.0
27 57 1.0
31 57 -1.0
33 57 -1.0
272 57 1.0
28 58 -1.0
32 58 -1.0
35 58 -1.0
276 58 1.0
29 59 1.0
31 59 -1.0
34 59 -1.0
273 59 1.0
30 60 1.0
32 60 -1.0
36 60 -1.0
277 60 1.0
37 61 -0.75
40 61 -1.0
42 61 -1.0
278 61 1.0
37 62 1.0
41 62 -1.0
44 62 -1.0
286 62 1.0
38 63 1.0
40 63 -1.0
43 63 -1.0
279 63 1.0
39 64 1.0
41 64 -1.0
45 64 -1.0
287 64 1.0
48 65 -1.0
50 65 -1.5
46 66 1.0
49 66 1.0
53 66 -1.0
55 66 -1.0
280 66 1.0
50 67 -1.0
54 67 -1.0
57 67 -1.0
288 67 1.0
51 68 1.0
53 68 -1.0
56 68 -1.0
281 68 1.0
52 69 1.0
54 69 -1.0
58 69 -1.0
290 69 1.0
54 70 1.0
106 70 1.0
241 70 1.0
59 71 -1.0
64 71 -1.0
67 71 -1.0
282 71 1.0
59 72 1.0
60 72 1.0
66 72 -1.0
71 72 -1.0
292 72 1.0
60 73 -0.5
65 73 -1.0
69 73 -1.0
284 73 1.0
61 74 1.0
64 74 -1.0
68 74 -1.0
283 74 1.0
62 75 1.0
65 75 -1.0
70 75 -1.0
285 75 1.0
63 76 1.0
66 76 -1.0
72 76 -1.0
293 76 1.0
65 77 1.0
238 77 1.0
239 77 -1.0
75 78 -1.0
77 78 -1.25
73 79 1.0
76 79 1.0
80 79 -1.0
82 79 -1.0
294 79 1.0
77 80 -1.0
81 80 -1.0
84 80 -1.0
304 80 1.0
78 81 1.0
80 81 -1.0
83 81 -1.0
295 81 1.0
79 82 1.0
81 82 -1.0
85 82 -1.0
306 82 1.0
81 83 1.0
148 83 1.0
248 83 1.0
88 84 -1.0
90 84 -0.9
86 85 1.0
89 85 1.0
93 85 -1.0
95 85 -1.0
296 85 1.0
90 86 -1.0
94 86 -1.0
97 86 -1.0
308 86 1.0
91 87 1.0
93 87 -1.0
96 87 -1.0
297 87 1.0
92 88 1.0
94 88 -1.0
98 88 -1.0
310 88 1.0
94 89 1.0
164 89 1.0
249 89 1.0
101 90 -1.0
103 90 -1.0
99 91 1.0
102 91 1.0
106 91 -1.0
108 91 -1.0
289 91 1.0
103 92 -1.0
107 92 -1.0
110 92 -1.0
312 92 1.0
104 93 1.0
106 93 -1.0
109 93 -1.0
291 93 1.0
105 94 1.0
107 94 -1.0
111 94 -1.0
313 94 1.0
112 95 -0.9
115 95 -1.0
117 95 -1.0
298 95 1.0
112 96 1.0
116 96 -1.0
119 96 -1.0
314 96 1.0
113 97 1.0
115 97 -1.0
118 97 -1.0
299 97 1.0
114 98 1.0
116 98 -1.0
120 98 -1.0
315 98 1.0
121 99 -0.6
124 99 -1.0
126 99 -1.0
300 99 1.0
121 100 1.0
125 100 -1.0
128 100 -1.0
316 100 1.0
122 101 1.0
124 101 -1.0
127 101 -1.0
301 101 1.0
123 102 1.0
125 102 -1.0
129 102 -1.0
317 102 1.0
132 103 -1.0
134 103 -1.1
130 104 1.0
133 104 1.0
137 104 -1.0
139 104 -1.0
302 104 1.0
134 105 -1.0
138 105 -1.0
141 105 -1.0
318 105 1.0
135 106 1.0
137 106 -1.0
140 106 -1.0
303 106 1.0
136 107 1.0
138 107 -1.0
142 107 -1.0
319 107 1.0
143 108 -0.9
148 108 -1.0
151 108 -1.0
305 108 1.0
143 109 1.0
144 109 1.0
150 109 -1.0
155 109 -1.0
328 109 1.0
144 110 -1.0
149 110 -1.0
153 110 -1.0
324 110 1.0
145 111 1.0
148 111 -1.0
152 111 -1.0
307 111 1.0
146 112 1.0
149 112 -1.0
154 112 -1.0
325 112 1.0
147 113 1.0
150 113 -1.0
156 113 -1.0
329 113 1.0
149 114 1.0
256 114 1.0
257 114 -1.0
159 115 -1.0
161 115 -1.0
157 116 1.0
160 116 1.0
164 116 -1.0
166 116 -1.0
309 116 1.0
161 117 -1.0
165 117 -1.0
168 117 -1.0
330 117 1.0
162 118 1.0
164 118 -1.0
167 118 -1.0
311 118 1.0
163 119 1.0
165 119 -1.0
169 119 -1.0
331 119 1.0
172 120 -1.0
174 120 -0.7
170 121 1.0
173 121 1.0
177 121 -1.0
179 121 -1.0
320 121 1.0
174 122 -1.0
178 122 -1.0
181 122 -1.0
332 122 1.0
175 123 1.0
177 123 -1.0
180 123 -1.0
321 123 1.0
176 124 1.0
178 124 -1.0
182 124 -1.0
333 124 1.0
185 125 -1.0
187 125 -0.65
183 126 1.0
186 126 1.0
196 126 -1.0
199 126 -1.0
322 126 1.0
187 127 -1.0
192 127 -1.0
198 127 -1.0
203 127 -1.0
334 127 1.0
190 128 -1.0
192 128 -0.65
188 129 1.0
191 129 1.0
197 129 -1.0
201 129 -1.0
326 129 1.0
193 130 1.0
196 130 -1.0
200 130 -1.0
323 130 1.0
194 131 1.0
197 131 -1.0
202 131 -1.0
327 131 1.0
195 132 1.0
198 132 -1.0
204 132 -1.0
335 132 1.0

BCOORD
53
21 10.0
23 2.39789527279837
34 10.0
36 2.87747432735804
43 2.87747432735804
45 2.15810574551853
56 2.87747432735804
58 2.03277599268042
68 2.87747432735804
70 7.0
72 3.5
83 2.15810574551853
85 1.43746550029693
96 2.15810574551853
98 1.03497516021379
109 2.03277599268042
111 1.10947836929589
118 3.5
120 3.15
127 3.5
129 2.1
140 3.5
142 1.6544851364539
152 1.43746550029693
154 5.0
156 5.0
167 1.03497516021379
169 0.710483612536911
180 1.10947836929589
182 0.522508489006913
200 1.10947836929589
202 8.15
204 1.43894002153683
205 -1.0
227 10.0
239 7.0
257 5.0
259 5.0
337 1.0
339 1.0
341 1.0
343 1.0
345 1.0
347 1.0
349 1.0
351 1.0
353 1.0
355 1.0
357 1.0
359 1.0
361 1.0
363 1.0
365 1.0
